c User generated cnf file
p cnf 9 51
1 -7 7 0 
5 5 -9 0 
4 7 -1 0 
6 8 -2 0 
4 -1 7 0 
9 9 -5 0 
8 3 -8 0 
1 -3 9 0 
9 3 -6 0 
3 -5 7 0 
4 7 -7 0 
2 7 -7 0 
1 5 -8 0 
4 9 -5 0 
2 1 -1 0 
7 4 -4 0 
2 -6 6 0 
5 -9 2 0 
4 9 -6 0 
5 -8 5 0 
8 8 -6 0 
7 -4 5 0 
5 8 -5 0 
4 7 -1 0 
3 9 -6 0 
5 9 -7 0 
8 9 -9 0 
1 -1 2 0 
5 -2 9 0 
5 -3 1 0 
1 -5 1 0 
4 -4 1 0 
9 2 -3 0 
3 -8 6 0 
9 -9 6 0 
3 9 -8 0 
5 -9 1 0 
4 8 -4 0 
9 7 -6 0 
2 -7 8 0 
7 -9 1 0 
2 4 -4 0 
5 -7 6 0 
4 6 -4 0 
4 -8 7 0 
5 -2 9 0 
1 -8 1 0 
5 6 -7 0 
5 7 -3 0 
1 9 -6 0 
8 -1 5 0 
